14 16 22658
16 11 17050
11 19 13721
19 1 210039
1 24 54636
24 20 232009
20 22 63679
22 26 11584
26 5 20825
5 13 6994
13 25 1644
25 18 7368
18 4 7922
4 28 9482
28 9 10294
9 15 13951
15 21 19591
21 23 92634
23 17 79298
17 10 52694
10 12 116497
12 8 61690
8 27 98591
27 7 7370
7 3 5029
3 6 188808
6 2 7286
2 30 6204
30 29 57184
29 14 53997
